original problem has 84376 variables (2492 bin, 78288 int, 0 impl, 3596 cont) and 197154 constraints
1/1 feasible solution given by solution candidate storage, new primal bound 3.378000e+03

presolving:
(round 1, fast)       38886 del vars, 10228 del conss, 1540 add conss, 197896 chg bounds, 58464 chg sides, 58464 chg coeffs, 0 upgd conss, 15204 impls, 468 clqs
(round 2, fast)       38886 del vars, 65388 del conss, 1540 add conss, 197896 chg bounds, 58788 chg sides, 89754 chg coeffs, 0 upgd conss, 42378 impls, 17432 clqs
   (1.4s) running MILP presolver
   (14.5s) MILP presolver (15 rounds): 9497 aggregations, 168 fixings, 0 bound changes
(round 3, medium)     48551 del vars, 197966 del conss, 123361 add conss, 197896 chg bounds, 58788 chg sides, 89754 chg coeffs, 0 upgd conss, 55748 impls, 16690 clqs
(round 4, fast)       48551 del vars, 197966 del conss, 123879 add conss, 197896 chg bounds, 59273 chg sides, 89754 chg coeffs, 0 upgd conss, 64118 impls, 18369 clqs
(round 5, fast)       48551 del vars, 197966 del conss, 123879 add conss, 197896 chg bounds, 59441 chg sides, 89754 chg coeffs, 0 upgd conss, 64118 impls, 18369 clqs
(round 6, exhaustive) 48551 del vars, 198209 del conss, 123879 add conss, 197896 chg bounds, 59441 chg sides, 89754 chg coeffs, 0 upgd conss, 64118 impls, 18369 clqs
(round 7, exhaustive) 48551 del vars, 198209 del conss, 123879 add conss, 197896 chg bounds, 59441 chg sides, 89754 chg coeffs, 89816 upgd conss, 64118 impls, 18369 clqs
   (26.2s) probing: 1000/18672 (5.4%) - 0 fixings, 0 aggregations, 914523 implications, 0 bound changes
   (26.2s) probing: 1001/18672 (5.4%) - 0 fixings, 0 aggregations, 916119 implications, 0 bound changes
   (26.2s) probing aborted: 1000/1000 successive useless probings
presolving (8 rounds: 8 fast, 4 medium, 3 exhaustive):
 48551 deleted vars, 198209 deleted constraints, 123879 added constraints, 197896 tightened bounds, 0 added holes, 59441 changed sides, 89754 changed coefficients
 916971 implications, 506635 cliques
presolved problem has 35825 variables (18340 bin, 16389 int, 696 impl, 400 cont) and 122824 constraints
  73458 constraints of type <varbound>
  16358 constraints of type <setppc>
  33008 constraints of type <linear>
Presolving Time: 25.74
transformed 1/1 original solutions to the transformed problem space

 time | node  | left  |LP iter|LP it/n|mem/heur|mdpt |vars |cons |rows |cuts |sepa|confs|strbr|  dualbound   | primalbound  |  gap   | compl. 
 60.6s|     1 |     0 | 30161 |     - |   685M |   0 |  35k| 122k| 122k|   0 |  0 |   0 |   0 | 4.200000e+01 | 3.378000e+03 |7942.86%| unknown
 60.6s|     1 |     2 | 30161 |     - |   685M |   0 |  35k| 122k| 122k|   0 |  1 |   0 |   0 | 4.200000e+01 | 3.378000e+03 |7942.86%| unknown

SCIP Status        : solving was interrupted [node limit reached]
Solving Time (sec) : 60.62
Solving Nodes      : 1
Primal Bound       : +3.37800000000000e+03 (1 solutions)
Dual Bound         : +4.20000000000000e+01
Gap                : 7942.86 %
wrote problem to file /mnt/lscratch/users/dferrario/Adaptive-Cutsel-MILP/TransformedInstances/allcolor58__trans__seed__1.mps
